
Gurobi 9.1.2 (win64) logging started Tue Dec  7 09:50:08 2021

Gurobi Optimizer version 9.1.2 build v9.1.2rc0 (win64)
Thread count: 8 physical cores, 8 logical processors, using up to 8 threads
Optimize a model with 1 rows, 77 columns and 76 nonzeros
Model fingerprint: 0x53f9c553
Variable types: 1 continuous, 76 integer (76 binary)
Coefficient statistics:
  Matrix range     [1e+00, 1e+01]
  Objective range  [1e+00, 1e+00]
  Bounds range     [2e+01, 2e+01]
  RHS range        [1e+01, 1e+01]
Presolve time: 0.00s
Presolved: 1 rows, 77 columns, 76 nonzeros
Variable types: 1 continuous, 76 integer (76 binary)

Root simplex log...

Iteration    Objective       Primal Inf.    Dual Inf.      Time
       0   -2.1609009e+01   2.179598e-01   0.000000e+00     15s
       5   -2.1609009e+01   0.000000e+00   0.000000e+00     15s

Root relaxation: objective -2.160901e+01, 5 iterations, 0.00 seconds

    Nodes    |    Current Node    |     Objective Bounds      |     Work
 Expl Unexpl |  Obj  Depth IntInf | Incumbent    BestBd   Gap | It/Node Time

     0     0  -21.60901    0    1          -  -21.60901      -     -   15s
H    0     0                       0.7460832  -21.60901  2996%     -   16s
H    0     0                       0.7348403  -21.60901  3041%     -   16s
     0     0  -18.95207    0    3    0.73484  -18.95207  2679%     -   16s
H    0     0                       0.6042580  -18.95207  3236%     -   17s
     0     0  -15.17411    0    2    0.60426  -15.17411  2611%     -   17s
     0     0  -13.98645    0    5    0.60426  -13.98645  2415%     -   17s
     0     0  -13.51338    0    5    0.60426  -13.51338  2336%     -   17s
     0     0  -13.32480    0    7    0.60426  -13.32480  2305%     -   18s
     0     0  -12.85582    0    5    0.60426  -12.85582  2228%     -   18s
     0     0  -12.04289    0    6    0.60426  -12.04289  2093%     -   18s
     0     0  -12.03553    0    6    0.60426  -12.03553  2092%     -   18s
     0     0  -11.63365    0    7    0.60426  -11.63365  2025%     -   18s
     0     0  -11.63365    0    7    0.60426  -11.63365  2025%     -   20s
     0     0  -11.35325    0    6    0.60426  -11.35325  1979%     -   20s
     0     0  -11.35133    0    6    0.60426  -11.35133  1979%     -   20s
     0     0  -10.68464    0    8    0.60426  -10.68464  1868%     -   20s
     0     0  -10.53040    0    7    0.60426  -10.53040  1843%     -   20s
     0     0   -9.87567    0    8    0.60426   -9.87567  1734%     -   20s
     0     0   -9.72141    0    8    0.60426   -9.72141  1709%     -   20s
     0     0   -9.51970    0    9    0.60426   -9.51970  1675%     -   20s
     0     0   -9.51114    0   10    0.60426   -9.51114  1674%     -   21s
     0     0   -9.31072    0    8    0.60426   -9.31072  1641%     -   21s
     0     0   -9.29609    0    9    0.60426   -9.29609  1638%     -   22s
     0     0   -8.98176    0    9    0.60426   -8.98176  1586%     -   22s
     0     0   -8.97775    0   10    0.60426   -8.97775  1586%     -   22s
     0     0   -8.97447    0   10    0.60426   -8.97447  1585%     -   22s
     0     0   -8.49798    0   10    0.60426   -8.49798  1506%     -   22s
     0     2   -7.94451    0   10    0.60426   -7.94451  1415%     -   23s

Cutting planes:
  MIR: 6
  Lazy constraints: 89

Explored 316 nodes (963 simplex iterations) in 27.45 seconds
Thread count was 8 (of 8 available processors)

Solution count 3: 0.604258 0.73484 0.746083 

Optimal solution found (tolerance 1.00e-04)
Best objective 6.042579503942e-01, best bound 6.042579503942e-01, gap 0.0000%

User-callback calls 943, time in user-callback 31.03 sec
